p tw 30 45
1 7
1 11
1 20
2 13
2 18
2 22
3 12
3 15
3 17
4 6
4 8
4 17
5 12
5 17
5 21
6 7
6 19
7 28
8 13
8 23
9 18
9 26
9 28
10 15
10 25
10 30
11 20
11 23
12 14
13 21
14 22
14 26
15 16
16 25
16 30
18 27
19 24
19 27
20 22
21 29
23 24
24 26
25 30
27 29
28 29
